
Cover cuts applied:  21
Flow cuts applied:  26
Mixed integer rounding cuts applied:  10
Zero-half cuts applied:  9
Multi commodity flow cuts applied:  1
Gomory fractional cuts applied:  3

Root node processing (before b&c):
  Real time             =    0.04 sec. (16.10 ticks)
Parallel b&c, 4 threads:
  Real time             =    0.00 sec. (0.00 ticks)
  Sync time (average)   =    0.00 sec.
  Wait time (average)   =    0.00 sec.
                          ------------
Total (root+branch&cut) =    0.04 sec. (16.10 ticks)
Version identifier: 12.10.0.0 | 2019-11-26 | 843d4de
CPXPARAM_MIP_Interval                            10
CPXPARAM_MIP_Tolerances_AbsMIPGap                0.98999999999999999
Tried aggregator 2 times.
MIP Presolve eliminated 3400 rows and 2223 columns.
MIP Presolve modified 1 coefficients.
Aggregator did 59 substitutions.
Reduced MIP has 210 rows, 203 columns, and 732 nonzeros.
Reduced MIP has 89 binaries, 114 generals, 0 SOSs, and 0 indicators.
Presolve time = 0.00 sec. (3.07 ticks)
Probing fixed 0 vars, tightened 7 bounds.
Probing changed sense of 4 constraints.
Probing time = 0.00 sec. (0.05 ticks)
Tried aggregator 1 time.
Detecting symmetries...
MIP Presolve eliminated 7 rows and 6 columns.
MIP Presolve modified 9 coefficients.
Reduced MIP has 203 rows, 197 columns, and 707 nonzeros.
Reduced MIP has 85 binaries, 112 generals, 0 SOSs, and 0 indicators.
Presolve time = 0.00 sec. (0.49 ticks)
Probing time = 0.00 sec. (0.04 ticks)
Clique table members: 12.
MIP emphasis: balance optimality and feasibility.
MIP search method: dynamic search.
Parallel mode: deterministic, using up to 4 threads.
Root relaxation solution time = 0.00 sec. (1.68 ticks)

        Nodes                                         Cuts/
   Node  Left     Objective  IInf  Best Integer    Best Bound    ItCnt     Gap

      0     0       22.3333    69                     22.3333      189         
      0     0       22.0000    69                    Cuts: 34      249         
      0     0       22.0000    69                   Cuts: 108      331         
      0     0       22.0000    69                    Cuts: 19      386         
      0     0       21.9167    69                    Cuts: 45      462         
      0     0       21.8333    69                    Cuts: 85      538         
Detecting symmetries...
      0     0       21.8333    69                    Cuts: 57      608         
*     0+    0                           20.0000       21.8333             9.17%
Detecting symmetries...
      0     2       21.8333    17       20.0000       21.8333      608    9.17%
Elapsed time = 0.10 sec. (59.53 ticks, tree = 0.02 MB, solutions = 1)
     10     8       21.7714    53       20.0000       21.8333     1007    9.17%
     20    12        cutoff             20.0000       21.8333     1308    9.17%
     30    20       21.1667    20       20.0000       21.8333     1628    9.17%
     40    26       21.0261    27       20.0000       21.8333     2349    9.17%
     50    26       21.6452    89       20.0000       21.8333     2614    9.17%
     60    33       21.4444    10       20.0000       21.8333     3142    9.17%
     70    33       21.0000    32       20.0000       21.8333     3354    9.17%
     80    31       21.7143    73       20.0000       21.8333     3320    9.17%
     90    35       21.3333    40       20.0000       21.8333     3494    9.17%
    100    36        cutoff             20.0000       21.8333     3569    9.17%
Elapsed time = 0.12 sec. (78.39 ticks, tree = 0.02 MB, solutions = 1)
    110    48        cutoff             20.0000       21.8333     4321    9.17%
    120    53    infeasible             20.0000       21.8333     4656    9.17%
    130    55       21.5000    53       20.0000       21.8333     4789    9.17%
    140    59       21.0000    40       20.0000       21.8333     4992    9.17%
    150    59       21.0000    61       20.0000       21.8333     5117    9.17%
    160    71        cutoff             20.0000       21.8333     5917    9.17%
    170    69       21.0000    57       20.0000       21.8333     5683    9.17%
    180    80       21.1667    19       20.0000       21.8333     6418    9.17%
    190    69       21.3750    71       20.0000       21.8000     6205    9.00%
    200    77        cutoff             20.0000       21.6924     7695    8.46%
Elapsed time = 0.14 sec. (95.27 ticks, tree = 0.03 MB, solutions = 1)
    210    81       21.3750    21       20.0000       21.6667     7293    8.33%
    220    81       21.1389    88       20.0000       21.6548     8745    8.27%
    230    83        cutoff             20.0000       21.6548     8391    8.27%
    240    84       21.3929    61       20.0000       21.6497     7531    8.25%
    250    86       21.0000    12       20.0000       21.6497     7615    8.25%
    260    77       21.3625    91       20.0000       21.6497     9028    8.25%
    270    79       21.2368    90       20.0000       21.6497     9146    8.25%
    280   100        cutoff             20.0000       21.6497    10479    8.25%
    290   100        cutoff             20.0000       21.6497    10539    8.25%
    300    90       21.3333    40       20.0000       21.6497     9618    8.25%
Elapsed time = 0.16 sec. (108.70 ticks, tree = 0.04 MB, solutions = 1)
    310    91        cutoff             20.0000       21.6497    10234    8.25%
    320    92        cutoff             20.0000       21.6497     9760    8.25%
    330    87        cutoff             20.0000       21.6497    10445    8.25%
    340    98        cutoff             20.0000       21.5560    10800    7.78%
    350   101        cutoff             20.0000       21.5455    12346    7.73%
    360    96       21.0000     8       20.0000       21.5344    12837    7.67%
    370    99        cutoff             20.0000       21.5344    12498    7.67%
    380   103        cutoff             20.0000       21.5000    12188    7.50%
    390    90        cutoff             20.0000       21.5000    13717    7.50%
    400    87        cutoff             20.0000       21.5000    13934    7.50%
Elapsed time = 0.18 sec. (125.53 ticks, tree = 0.03 MB, solutions = 1)
    410    79        cutoff             20.0000       21.5000    14716    7.50%
    420    71        cutoff             20.0000       21.5000    15038    7.50%
    430    67    infeasible             20.0000       21.3333    15200    6.67%
    440    73       21.0000    17       20.0000       21.3333    16031    6.67%
    450    66       21.0000     6       20.0000       21.2727    16289    6.36%
    460    67        cutoff             20.0000       21.2727    16314    6.36%
    470    64        cutoff             20.0000       21.2727    15417    6.36%
    480    63        cutoff             20.0000       21.2727    15450    6.36%
    490    67       21.0000    15       20.0000       21.2273    16172    6.14%
    500    64        cutoff             20.0000       21.2273    16233    6.14%
Elapsed time = 0.19 sec. (132.85 ticks, tree = 0.03 MB, solutions = 1)
    510    60        cutoff             20.0000       21.2273    16279    6.14%
    520    27        cutoff             20.0000       21.2222    17294    6.11%
    530    12        cutoff             20.0000       21.1667    17703    5.83%
the number of Nodes = 537
